p tw 26 59
1 21
1 7
1 8
1 2
2 14
2 9
2 8
3 5
3 19
3 12
3 7
4 22
4 16
4 6
4 15
5 25
5 22
5 8
6 25
6 18
6 14
6 15
7 21
7 12
7 13
7 8
8 13
9 24
9 14
9 10
9 17
10 24
10 11
10 20
11 23
11 16
11 20
12 13
12 26
13 26
14 18
14 17
15 16
15 17
16 22
16 23
16 17
17 18
18 19
18 20
19 26
19 20
20 26
21 23
21 22
22 23
24 25
24 26
25 26
